/*********************************************
 * OPL 12.6.0.0 Data
 * Author: Adrian Rodriguez Bazaga, Pau Rodriguez Esmerats
 * Creation Date: 06/12/2017 at 23:04:56
 *********************************************/

nNurses=98;
maxConsec=2;
maxPresence=7;
maxHours=5;
minHours=1;
hours=24;
demand= [16 18 30 26 18 30 26 19 22 12 2 2 3 4 4 3 3 2 2 2 14 25 12 22  ];
